3	25
163	623	29	89	429	763	257	44	154	856	157	915	699	666	63	72	794	198	531	394	936	408	197	816	819	
814	774	988	673	688	907	536	468	234	75	486	347	67	473	147	132	387	222	800	363	229	989	157	403	97	
1910	1910	1910	
